NAME: random_30_2
TYPE: TSP
COMMENT: random_30_2
DIMENSION: 30
EDGE_WEIGHT_TYPE: EUC_2D
NODE_COORD_SECTION
1 31 494
2 255 297
3 472 243
4 204 241
5 339 3
6 256 177
7 275 82
8 243 459
9 213 224
10 110 343
11 304 152
12 251 39
13 119 320
14 179 221
15 51 313
16 47 243
17 153 485
18 337 220
19 254 194
20 288 232
21 287 492
22 337 19
23 483 408
24 491 462
25 483 475
26 197 268
27 65 181
28 435 241
29 499 294
30 352 321
